110101000001000010001110111001100110111010100111010101101111001110000010111000110001111101010000100001100101011111001110010010101101000110100111011110111100001001110011101111001100110010000100000001010001000110111101111110000110000111101100011011001110110100011110110111100001110101111000001110001101001001011100010100010000001110111100100011100010101100001101011001110000001000011000001101101111000010100010000000000000000001111100011011101110110100000010000000001111110010001000111000011000101100000011000101010111101110010110000000110001010110111011110101101011010111101100101100000011010100000000010101000010101011010111000000000100100001111110110101011100001000100110010101111111000000011010001011111010010101010010101001101000110010011011111001111100101100110010101101011110110101101000010011101101111010101001010100101001000111110011000011100101100110101000101001010011110000111010010000110111100000001000001101101111000010100010000000000000000010101010011011100001110100000010000000001111110010001000111000011001110100000011000101010111101110010110000000110001010110111011110101101011010111101100101100000011010100000000100000100011110010010001